NAME: concorde91
TYPE: TSP
DIMENSION: 25 
EDGE_WEIGHT_TYPE: EUC_2D
NODE_COORD_SECTION
1 66 51
2 76 52
3 55 100
4 54 43
5 85 100
6 65 79
7 96 52
8 62 50
9 49 92
10 98 26
11 49 17
12 66 40
13 60 54
14 95 24
15 37 37
16 88 58
17 45 21
18 50 80
19 46 64
20 62 74
21 61 44
22 79 58
23 56 25
24 77 46
25 40 17
